#
# This is the geometry file that corresponds to the current relaxation step.
# If you do not want this file to be written, set the "write_restart_geometry" flag to .false.
#
lattice_vector 10.0 0.0 0.0
lattice_vector 0.0 10.0 0.0
lattice_vector 0.0 0.0 10.0
atom       1.39300036      1.39300036      1.52494116 H
atom       1.39300036      1.39300036      2.27505884 H
#


